<?xml version="1.0" encoding="UTF-8"?><osil xmlns="os.optimizationservices.org"   xmlns:xsi="http://www.w3.org/2001/XMLSchema-instance" xsi:schemaLocation="os.optimizationservices.org http://www.optimizationservices.org/schemas/2.0/OSiL.xsd" ><instanceHeader><name>q_30_0_75_2</name></instanceHeader><instanceData><variables numberOfVariables="30"><var name="x1" ub="1"/><var name="x2" ub="1"/><var name="x3" ub="1"/><var name="x4" ub="1"/><var name="x5" ub="1"/><var name="x6" ub="1"/><var name="x7" ub="1"/><var name="x8" ub="1"/><var name="x9" ub="1"/><var name="x10" ub="1"/><var name="x11" ub="1"/><var name="x12" ub="1"/><var name="x13" ub="1"/><var name="x14" ub="1"/><var name="x15" ub="1"/><var name="x16" ub="1"/><var name="x17" ub="1"/><var name="x18" ub="1"/><var name="x19" ub="1"/><var name="x20" ub="1"/><var name="x21" ub="1"/><var name="x22" ub="1"/><var name="x23" ub="1"/><var name="x24" ub="1"/><var name="x25" ub="1"/><var name="x26" ub="1"/><var name="x27" ub="1"/><var name="x28" ub="1"/><var name="x29" ub="1"/><var name="x30" ub="1"/></variables><objectives numberOfObjectives="1"><obj maxOrMin="min" name="defObj_x31" numberOfObjCoef="30"><coef idx="0">.8491</coef><coef idx="1">-.9975</coef><coef idx="2">.5027</coef><coef idx="3">.496</coef><coef idx="4">-.6663</coef><coef idx="5">.2055</coef><coef idx="6">-.1878</coef><coef idx="7">.5555</coef><coef idx="8">9.53e-2</coef><coef idx="9">-.3364</coef><coef idx="10">-2.69e-2</coef><coef idx="11">.958</coef><coef idx="12">-.871</coef><coef idx="13">-.3226</coef><coef idx="14">-.8197</coef><coef idx="15">-.1814</coef><coef idx="16">-.8487</coef><coef idx="17">.2095</coef><coef idx="18">-.2767</coef><coef idx="19">-.3641</coef><coef idx="20">-2.45e-2</coef><coef idx="21">.4568</coef><coef idx="22">.3128</coef><coef idx="23">.4853</coef><coef idx="24">.9152</coef><coef idx="25">-.5344</coef><coef idx="26">.9609</coef><coef idx="27">.1761</coef><coef idx="28">.344</coef><coef idx="29">-.3941</coef></obj></objectives><quadraticCoefficients  numberOfQuadraticTerms="240" ><qTerm  idx="-1"  idxOne="0"  idxTwo="0"  coef=".664"/><qTerm  idx="-1"  idxOne="0"  idxTwo="1"  coef=".5083"/><qTerm  idx="-1"  idxOne="0"  idxTwo="2"  coef="-.3124"/><qTerm  idx="-1"  idxOne="0"  idxTwo="3"  coef="-.4061"/><qTerm  idx="-1"  idxOne="0"  idxTwo="4"  coef="8.58e-2"/><qTerm  idx="-1"  idxOne="0"  idxTwo="5"  coef="-.2714"/><qTerm  idx="-1"  idxOne="0"  idxTwo="6"  coef="-.8232"/><qTerm  idx="-1"  idxOne="0"  idxTwo="10"  coef="-.1146"/><qTerm  idx="-1"  idxOne="0"  idxTwo="11"  coef=".9703"/><qTerm  idx="-1"  idxOne="0"  idxTwo="13"  coef=".9858"/><qTerm  idx="-1"  idxOne="0"  idxTwo="15"  coef=".859"/><qTerm  idx="-1"  idxOne="0"  idxTwo="16"  coef="2.64e-2"/><qTerm  idx="-1"  idxOne="0"  idxTwo="18"  coef="-.8325"/><qTerm  idx="-1"  idxOne="0"  idxTwo="19"  coef="-.2402"/><qTerm  idx="-1"  idxOne="0"  idxTwo="22"  coef=".9962"/><qTerm  idx="-1"  idxOne="0"  idxTwo="23"  coef="-.612"/><qTerm  idx="-1"  idxOne="0"  idxTwo="25"  coef="-.7468"/><qTerm  idx="-1"  idxOne="0"  idxTwo="27"  coef=".5066"/><qTerm  idx="-1"  idxOne="0"  idxTwo="28"  coef=".5209"/><qTerm  idx="-1"  idxOne="0"  idxTwo="29"  coef="-.8096"/><qTerm  idx="-1"  idxOne="1"  idxTwo="1"  coef=".2097"/><qTerm  idx="-1"  idxOne="1"  idxTwo="4"  coef="-.8223"/><qTerm  idx="-1"  idxOne="1"  idxTwo="5"  coef=".8219"/><qTerm  idx="-1"  idxOne="1"  idxTwo="7"  coef=".8915"/><qTerm  idx="-1"  idxOne="1"  idxTwo="8"  coef=".4384"/><qTerm  idx="-1"  idxOne="1"  idxTwo="9"  coef="1.04e-2"/><qTerm  idx="-1"  idxOne="1"  idxTwo="11"  coef="-.6145"/><qTerm  idx="-1"  idxOne="1"  idxTwo="12"  coef=".3569"/><qTerm  idx="-1"  idxOne="1"  idxTwo="16"  coef="-8.35e-2"/><qTerm  idx="-1"  idxOne="1"  idxTwo="18"  coef="-.1778"/><qTerm  idx="-1"  idxOne="1"  idxTwo="20"  coef=".1688"/><qTerm  idx="-1"  idxOne="1"  idxTwo="21"  coef="-.6302"/><qTerm  idx="-1"  idxOne="1"  idxTwo="22"  coef="5.73e-2"/><qTerm  idx="-1"  idxOne="1"  idxTwo="23"  coef=".8851"/><qTerm  idx="-1"  idxOne="1"  idxTwo="25"  coef=".9515"/><qTerm  idx="-1"  idxOne="1"  idxTwo="27"  coef="-6.04e-2"/><qTerm  idx="-1"  idxOne="1"  idxTwo="28"  coef="-.8915"/><qTerm  idx="-1"  idxOne="2"  idxTwo="3"  coef="-9.68e-2"/><qTerm  idx="-1"  idxOne="2"  idxTwo="8"  coef="-.5954"/><qTerm  idx="-1"  idxOne="2"  idxTwo="10"  coef="-.902"/><qTerm  idx="-1"  idxOne="2"  idxTwo="12"  coef=".9315"/><qTerm  idx="-1"  idxOne="2"  idxTwo="15"  coef=".4294"/><qTerm  idx="-1"  idxOne="2"  idxTwo="17"  coef=".7398"/><qTerm  idx="-1"  idxOne="2"  idxTwo="18"  coef="-.6759"/><qTerm  idx="-1"  idxOne="2"  idxTwo="19"  coef="-1.66e-2"/><qTerm  idx="-1"  idxOne="2"  idxTwo="22"  coef=".3176"/><qTerm  idx="-1"  idxOne="2"  idxTwo="24"  coef="-.434"/><qTerm  idx="-1"  idxOne="2"  idxTwo="26"  coef="-.8219"/><qTerm  idx="-1"  idxOne="2"  idxTwo="27"  coef="-.9323"/><qTerm  idx="-1"  idxOne="2"  idxTwo="29"  coef="-.2384"/><qTerm  idx="-1"  idxOne="3"  idxTwo="8"  coef=".2604"/><qTerm  idx="-1"  idxOne="3"  idxTwo="9"  coef=".4567"/><qTerm  idx="-1"  idxOne="3"  idxTwo="10"  coef=".7508"/><qTerm  idx="-1"  idxOne="3"  idxTwo="13"  coef=".1384"/><qTerm  idx="-1"  idxOne="3"  idxTwo="14"  coef="-.5557"/><qTerm  idx="-1"  idxOne="3"  idxTwo="15"  coef="-.2385"/><qTerm  idx="-1"  idxOne="3"  idxTwo="17"  coef="1.99e-2"/><qTerm  idx="-1"  idxOne="3"  idxTwo="20"  coef=".7632"/><qTerm  idx="-1"  idxOne="3"  idxTwo="23"  coef="-.9947"/><qTerm  idx="-1"  idxOne="3"  idxTwo="26"  coef="-.3877"/><qTerm  idx="-1"  idxOne="3"  idxTwo="27"  coef=".8177"/><qTerm  idx="-1"  idxOne="3"  idxTwo="29"  coef="-.3725"/><qTerm  idx="-1"  idxOne="4"  idxTwo="4"  coef="-.3487"/><qTerm  idx="-1"  idxOne="4"  idxTwo="9"  coef="-.8521"/><qTerm  idx="-1"  idxOne="4"  idxTwo="12"  coef=".7201"/><qTerm  idx="-1"  idxOne="4"  idxTwo="15"  coef="-.9411"/><qTerm  idx="-1"  idxOne="4"  idxTwo="17"  coef="-.6075"/><qTerm  idx="-1"  idxOne="4"  idxTwo="18"  coef=".4446"/><qTerm  idx="-1"  idxOne="4"  idxTwo="19"  coef="-.6889"/><qTerm  idx="-1"  idxOne="4"  idxTwo="20"  coef=".5368"/><qTerm  idx="-1"  idxOne="4"  idxTwo="23"  coef=".9675"/><qTerm  idx="-1"  idxOne="4"  idxTwo="24"  coef="-.1386"/><qTerm  idx="-1"  idxOne="4"  idxTwo="26"  coef="-.4474"/><qTerm  idx="-1"  idxOne="5"  idxTwo="5"  coef="-.8875"/><qTerm  idx="-1"  idxOne="5"  idxTwo="7"  coef="-.7171"/><qTerm  idx="-1"  idxOne="5"  idxTwo="9"  coef="-.2179"/><qTerm  idx="-1"  idxOne="5"  idxTwo="10"  coef="-.317"/><qTerm  idx="-1"  idxOne="5"  idxTwo="15"  coef="-3.32e-2"/><qTerm  idx="-1"  idxOne="5"  idxTwo="21"  coef="-.625"/><qTerm  idx="-1"  idxOne="5"  idxTwo="22"  coef=".2913"/><qTerm  idx="-1"  idxOne="5"  idxTwo="27"  coef="7.55e-2"/><qTerm  idx="-1"  idxOne="5"  idxTwo="29"  coef="-1.78e-2"/><qTerm  idx="-1"  idxOne="6"  idxTwo="6"  coef="-.215"/><qTerm  idx="-1"  idxOne="6"  idxTwo="7"  coef="-.7588"/><qTerm  idx="-1"  idxOne="6"  idxTwo="9"  coef=".2416"/><qTerm  idx="-1"  idxOne="6"  idxTwo="12"  coef="-.1383"/><qTerm  idx="-1"  idxOne="6"  idxTwo="16"  coef=".2175"/><qTerm  idx="-1"  idxOne="6"  idxTwo="17"  coef="-.5311"/><qTerm  idx="-1"  idxOne="6"  idxTwo="18"  coef="-.6322"/><qTerm  idx="-1"  idxOne="6"  idxTwo="19"  coef="-.8211"/><qTerm  idx="-1"  idxOne="6"  idxTwo="20"  coef="-.2421"/><qTerm  idx="-1"  idxOne="6"  idxTwo="21"  coef="-.9794"/><qTerm  idx="-1"  idxOne="6"  idxTwo="22"  coef=".6866"/><qTerm  idx="-1"  idxOne="6"  idxTwo="25"  coef=".144"/><qTerm  idx="-1"  idxOne="6"  idxTwo="29"  coef=".935"/><qTerm  idx="-1"  idxOne="7"  idxTwo="7"  coef="-.7224"/><qTerm  idx="-1"  idxOne="7"  idxTwo="10"  coef="-.79"/><qTerm  idx="-1"  idxOne="7"  idxTwo="11"  coef="-.6261"/><qTerm  idx="-1"  idxOne="7"  idxTwo="12"  coef="-.59"/><qTerm  idx="-1"  idxOne="7"  idxTwo="15"  coef=".8708"/><qTerm  idx="-1"  idxOne="7"  idxTwo="21"  coef=".5423"/><qTerm  idx="-1"  idxOne="7"  idxTwo="24"  coef=".3356"/><qTerm  idx="-1"  idxOne="7"  idxTwo="27"  coef=".142"/><qTerm  idx="-1"  idxOne="7"  idxTwo="28"  coef=".5119"/><qTerm  idx="-1"  idxOne="8"  idxTwo="8"  coef=".7599"/><qTerm  idx="-1"  idxOne="8"  idxTwo="9"  coef="-.4022"/><qTerm  idx="-1"  idxOne="8"  idxTwo="10"  coef=".4446"/><qTerm  idx="-1"  idxOne="8"  idxTwo="11"  coef="-.8166"/><qTerm  idx="-1"  idxOne="8"  idxTwo="12"  coef=".6446"/><qTerm  idx="-1"  idxOne="8"  idxTwo="13"  coef="-.1284"/><qTerm  idx="-1"  idxOne="8"  idxTwo="15"  coef="-.3651"/><qTerm  idx="-1"  idxOne="8"  idxTwo="17"  coef="-.2567"/><qTerm  idx="-1"  idxOne="8"  idxTwo="18"  coef=".1421"/><qTerm  idx="-1"  idxOne="8"  idxTwo="19"  coef="-.8825"/><qTerm  idx="-1"  idxOne="8"  idxTwo="20"  coef="-.6058"/><qTerm  idx="-1"  idxOne="8"  idxTwo="24"  coef=".503"/><qTerm  idx="-1"  idxOne="8"  idxTwo="27"  coef="-4.62e-2"/><qTerm  idx="-1"  idxOne="8"  idxTwo="29"  coef="-.717"/><qTerm  idx="-1"  idxOne="9"  idxTwo="9"  coef="2.53e-2"/><qTerm  idx="-1"  idxOne="9"  idxTwo="10"  coef="-.9476"/><qTerm  idx="-1"  idxOne="9"  idxTwo="11"  coef="-.3171"/><qTerm  idx="-1"  idxOne="9"  idxTwo="12"  coef=".5691"/><qTerm  idx="-1"  idxOne="9"  idxTwo="13"  coef="-.3612"/><qTerm  idx="-1"  idxOne="9"  idxTwo="14"  coef="4.88e-2"/><qTerm  idx="-1"  idxOne="9"  idxTwo="16"  coef=".423"/><qTerm  idx="-1"  idxOne="9"  idxTwo="18"  coef=".2762"/><qTerm  idx="-1"  idxOne="9"  idxTwo="19"  coef="2.21e-2"/><qTerm  idx="-1"  idxOne="9"  idxTwo="21"  coef=".3975"/><qTerm  idx="-1"  idxOne="9"  idxTwo="24"  coef="-.5281"/><qTerm  idx="-1"  idxOne="9"  idxTwo="25"  coef="-.722"/><qTerm  idx="-1"  idxOne="9"  idxTwo="26"  coef="-.1433"/><qTerm  idx="-1"  idxOne="9"  idxTwo="27"  coef=".1957"/><qTerm  idx="-1"  idxOne="9"  idxTwo="28"  coef=".7882"/><qTerm  idx="-1"  idxOne="10"  idxTwo="11"  coef=".9988"/><qTerm  idx="-1"  idxOne="10"  idxTwo="18"  coef=".8552"/><qTerm  idx="-1"  idxOne="10"  idxTwo="19"  coef=".3681"/><qTerm  idx="-1"  idxOne="10"  idxTwo="20"  coef="-.6187"/><qTerm  idx="-1"  idxOne="10"  idxTwo="21"  coef="-.2208"/><qTerm  idx="-1"  idxOne="10"  idxTwo="22"  coef="-.8222"/><qTerm  idx="-1"  idxOne="10"  idxTwo="23"  coef=".3944"/><qTerm  idx="-1"  idxOne="10"  idxTwo="24"  coef=".4808"/><qTerm  idx="-1"  idxOne="10"  idxTwo="25"  coef="-.8075"/><qTerm  idx="-1"  idxOne="10"  idxTwo="29"  coef="-.8579"/><qTerm  idx="-1"  idxOne="11"  idxTwo="11"  coef="-.5665"/><qTerm  idx="-1"  idxOne="11"  idxTwo="13"  coef="-.895"/><qTerm  idx="-1"  idxOne="11"  idxTwo="14"  coef="-.3975"/><qTerm  idx="-1"  idxOne="11"  idxTwo="16"  coef=".4934"/><qTerm  idx="-1"  idxOne="11"  idxTwo="19"  coef=".2624"/><qTerm  idx="-1"  idxOne="11"  idxTwo="20"  coef=".2931"/><qTerm  idx="-1"  idxOne="11"  idxTwo="21"  coef="-.8108"/><qTerm  idx="-1"  idxOne="11"  idxTwo="22"  coef="-.6769"/><qTerm  idx="-1"  idxOne="11"  idxTwo="23"  coef="-.2571"/><qTerm  idx="-1"  idxOne="11"  idxTwo="25"  coef=".1818"/><qTerm  idx="-1"  idxOne="11"  idxTwo="27"  coef="-.5706"/><qTerm  idx="-1"  idxOne="11"  idxTwo="29"  coef=".6166"/><qTerm  idx="-1"  idxOne="12"  idxTwo="13"  coef="-.7727"/><qTerm  idx="-1"  idxOne="12"  idxTwo="14"  coef="-.2887"/><qTerm  idx="-1"  idxOne="12"  idxTwo="15"  coef="-.6625"/><qTerm  idx="-1"  idxOne="12"  idxTwo="16"  coef="-.4673"/><qTerm  idx="-1"  idxOne="12"  idxTwo="21"  coef=".9985"/><qTerm  idx="-1"  idxOne="12"  idxTwo="25"  coef="-5.13e-2"/><qTerm  idx="-1"  idxOne="12"  idxTwo="26"  coef="-.243"/><qTerm  idx="-1"  idxOne="12"  idxTwo="27"  coef=".9283"/><qTerm  idx="-1"  idxOne="12"  idxTwo="28"  coef="-.9095"/><qTerm  idx="-1"  idxOne="13"  idxTwo="14"  coef="5.83e-2"/><qTerm  idx="-1"  idxOne="13"  idxTwo="15"  coef=".823"/><qTerm  idx="-1"  idxOne="13"  idxTwo="16"  coef="-.5969"/><qTerm  idx="-1"  idxOne="13"  idxTwo="19"  coef=".8222"/><qTerm  idx="-1"  idxOne="13"  idxTwo="21"  coef="-4.05e-2"/><qTerm  idx="-1"  idxOne="13"  idxTwo="22"  coef="-.131"/><qTerm  idx="-1"  idxOne="13"  idxTwo="23"  coef="-.3485"/><qTerm  idx="-1"  idxOne="13"  idxTwo="25"  coef=".8998"/><qTerm  idx="-1"  idxOne="13"  idxTwo="26"  coef="-.2805"/><qTerm  idx="-1"  idxOne="13"  idxTwo="28"  coef=".5217"/><qTerm  idx="-1"  idxOne="13"  idxTwo="29"  coef="-.933"/><qTerm  idx="-1"  idxOne="14"  idxTwo="14"  coef=".9836"/><qTerm  idx="-1"  idxOne="14"  idxTwo="19"  coef="-.9513"/><qTerm  idx="-1"  idxOne="14"  idxTwo="21"  coef="-.9415"/><qTerm  idx="-1"  idxOne="14"  idxTwo="23"  coef="-.4551"/><qTerm  idx="-1"  idxOne="14"  idxTwo="26"  coef=".4972"/><qTerm  idx="-1"  idxOne="15"  idxTwo="15"  coef="-.429"/><qTerm  idx="-1"  idxOne="15"  idxTwo="16"  coef="-.5465"/><qTerm  idx="-1"  idxOne="15"  idxTwo="18"  coef="-.1411"/><qTerm  idx="-1"  idxOne="15"  idxTwo="19"  coef=".5444"/><qTerm  idx="-1"  idxOne="15"  idxTwo="23"  coef=".1779"/><qTerm  idx="-1"  idxOne="15"  idxTwo="24"  coef="4.02e-2"/><qTerm  idx="-1"  idxOne="15"  idxTwo="25"  coef="-.9732"/><qTerm  idx="-1"  idxOne="15"  idxTwo="28"  coef="-.3496"/><qTerm  idx="-1"  idxOne="15"  idxTwo="29"  coef="-.2575"/><qTerm  idx="-1"  idxOne="16"  idxTwo="16"  coef=".6694"/><qTerm  idx="-1"  idxOne="16"  idxTwo="19"  coef="-.4773"/><qTerm  idx="-1"  idxOne="16"  idxTwo="21"  coef=".4754"/><qTerm  idx="-1"  idxOne="16"  idxTwo="22"  coef="-.9142"/><qTerm  idx="-1"  idxOne="16"  idxTwo="23"  coef=".6845"/><qTerm  idx="-1"  idxOne="16"  idxTwo="24"  coef="-.7219"/><qTerm  idx="-1"  idxOne="16"  idxTwo="25"  coef=".7798"/><qTerm  idx="-1"  idxOne="16"  idxTwo="26"  coef="7.33e-2"/><qTerm  idx="-1"  idxOne="16"  idxTwo="28"  coef="-.7376"/><qTerm  idx="-1"  idxOne="17"  idxTwo="17"  coef="2.56e-2"/><qTerm  idx="-1"  idxOne="17"  idxTwo="21"  coef="-.2386"/><qTerm  idx="-1"  idxOne="17"  idxTwo="23"  coef=".8016"/><qTerm  idx="-1"  idxOne="17"  idxTwo="26"  coef=".6794"/><qTerm  idx="-1"  idxOne="17"  idxTwo="27"  coef=".6011"/><qTerm  idx="-1"  idxOne="17"  idxTwo="28"  coef="-.1622"/><qTerm  idx="-1"  idxOne="18"  idxTwo="18"  coef="-3.69e-2"/><qTerm  idx="-1"  idxOne="18"  idxTwo="22"  coef="-.5992"/><qTerm  idx="-1"  idxOne="18"  idxTwo="23"  coef=".9241"/><qTerm  idx="-1"  idxOne="18"  idxTwo="24"  coef=".9873"/><qTerm  idx="-1"  idxOne="18"  idxTwo="25"  coef=".5992"/><qTerm  idx="-1"  idxOne="18"  idxTwo="28"  coef=".8133"/><qTerm  idx="-1"  idxOne="18"  idxTwo="29"  coef=".4239"/><qTerm  idx="-1"  idxOne="19"  idxTwo="21"  coef="-.1981"/><qTerm  idx="-1"  idxOne="19"  idxTwo="22"  coef=".5006"/><qTerm  idx="-1"  idxOne="19"  idxTwo="24"  coef="-.5385"/><qTerm  idx="-1"  idxOne="19"  idxTwo="29"  coef=".1593"/><qTerm  idx="-1"  idxOne="20"  idxTwo="23"  coef="-8.71e-2"/><qTerm  idx="-1"  idxOne="20"  idxTwo="29"  coef="-.9382"/><qTerm  idx="-1"  idxOne="21"  idxTwo="23"  coef="-1.48e-2"/><qTerm  idx="-1"  idxOne="21"  idxTwo="26"  coef="-.4904"/><qTerm  idx="-1"  idxOne="21"  idxTwo="28"  coef=".5096"/><qTerm  idx="-1"  idxOne="22"  idxTwo="22"  coef="-.4809"/><qTerm  idx="-1"  idxOne="22"  idxTwo="23"  coef="-.4848"/><qTerm  idx="-1"  idxOne="22"  idxTwo="25"  coef=".3062"/><qTerm  idx="-1"  idxOne="22"  idxTwo="29"  coef=".9318"/><qTerm  idx="-1"  idxOne="23"  idxTwo="23"  coef="-.1853"/><qTerm  idx="-1"  idxOne="23"  idxTwo="25"  coef=".5946"/><qTerm  idx="-1"  idxOne="23"  idxTwo="27"  coef="-.9998"/><qTerm  idx="-1"  idxOne="23"  idxTwo="28"  coef="5.4e-2"/><qTerm  idx="-1"  idxOne="24"  idxTwo="24"  coef=".9006"/><qTerm  idx="-1"  idxOne="24"  idxTwo="25"  coef="-.322"/><qTerm  idx="-1"  idxOne="24"  idxTwo="28"  coef="-.4127"/><qTerm  idx="-1"  idxOne="24"  idxTwo="29"  coef="-.6934"/><qTerm  idx="-1"  idxOne="25"  idxTwo="26"  coef=".408"/><qTerm  idx="-1"  idxOne="25"  idxTwo="27"  coef="-.6923"/><qTerm  idx="-1"  idxOne="25"  idxTwo="28"  coef="-8.69e-2"/><qTerm  idx="-1"  idxOne="25"  idxTwo="29"  coef="-2.19e-2"/><qTerm  idx="-1"  idxOne="27"  idxTwo="27"  coef=".4814"/><qTerm  idx="-1"  idxOne="27"  idxTwo="29"  coef="-7.82e-2"/><qTerm  idx="-1"  idxOne="28"  idxTwo="29"  coef="-.3978"/><qTerm  idx="-1"  idxOne="29"  idxTwo="29"  coef="-5.86e-2"/></quadraticCoefficients></instanceData></osil>
